TCS_Benchmarks/redos_fix/snort3_output_distinct_4737_4736_24_0.smt2
(set-logic QF_S)
(declare-const x String)
(assert (str.in.re x (re.inter  (re.++ (re.* (re.comp  (str.to_re "\u{0A}")) )  (re.++ (re.comp  (re.union  (str.to_re "\u{0A}")  (str.to.re "\u{26}"))) (re.++ (re.comp  (re.union  (str.to_re "\u{0A}")  (str.to.re "\u{26}"))) (re.++ (re.comp  (re.union  (str.to_re "\u{0A}")  (str.to.re "\u{26}"))) (re.++ (re.comp  (re.union  (str.to_re "\u{0A}")  (str.to.re "\u{26}"))) (re.++ (re.comp  (re.union  (str.to_re "\u{0A}")  (str.to.re "\u{26}"))) (re.++ (re.comp  (re.union  (str.to_re "\u{0A}")  (str.to.re "\u{26}"))) (re.++ (re.comp  (re.union  (str.to_re "\u{0A}")  (str.to.re "\u{26}"))) (re.++ (re.comp  (re.union  (str.to_re "\u{0A}")  (str.to.re "\u{26}"))) (re.++ (re.comp  (re.union  (str.to_re "\u{0A}")  (str.to.re "\u{26}"))) (re.++ (re.comp  (re.union  (str.to_re "\u{0A}")  (str.to.re "\u{26}"))) (re.++ (re.comp  (re.union  (str.to_re "\u{0A}")  (str.to.re "\u{26}"))) (re.++ (re.comp  (re.union  (str.to_re "\u{0A}")  (str.to.re "\u{26}"))) (re.++ (re.comp  (re.union  (str.to_re "\u{0A}")  (str.to.re "\u{26}"))) (re.++ (re.comp  (re.union  (str.to_re "\u{0A}")  (str.to.re "\u{26}"))) (re.++ (re.comp  (re.union  (str.to_re "\u{0A}")  (str.to.re "\u{26}"))) (re.++ (re.comp  (re.union  (str.to_re "\u{0A}")  (str.to.re "\u{26}"))) (re.++ (re.comp  (re.union  (str.to_re "\u{0A}")  (str.to.re "\u{26}"))) (re.++ (re.comp  (re.union  (str.to_re "\u{0A}")  (str.to.re "\u{26}"))) (re.++ (re.comp  (re.union  (str.to_re "\u{0A}")  (str.to.re "\u{26}"))) (re.++ (re.comp  (re.union  (str.to_re "\u{0A}")  (str.to.re "\u{26}"))) (re.++ (re.comp  (re.union  (str.to_re "\u{0A}")  (str.to.re "\u{26}"))) (re.++ (re.comp  (re.union  (str.to_re "\u{0A}")  (str.to.re "\u{26}"))) (re.++ (re.comp  (re.union  (str.to_re "\u{0A}")  (str.to.re "\u{26}"))) (re.++ (re.comp  (re.union  (str.to_re "\u{0A}")  (str.to.re "\u{26}"))) (re.++ (re.comp  (re.union  (str.to_re "\u{0A}")  (str.to.re "\u{26}"))) (re.++ (re.comp  (re.union  (str.to_re "\u{0A}")  (str.to.re "\u{26}"))) (re.++ (re.comp  (re.union  (str.to_re "\u{0A}")  (str.to.re "\u{26}"))) (re.++ (re.comp  (re.union  (str.to_re "\u{0A}")  (str.to.re "\u{26}"))) (re.++ (re.comp  (re.union  (str.to_re "\u{0A}")  (str.to.re "\u{26}"))) (re.++ (re.comp  (re.union  (str.to_re "\u{0A}")  (str.to.re "\u{26}"))) (re.++ (re.comp  (re.union  (str.to_re "\u{0A}")  (str.to.re "\u{26}"))) (re.++ (re.comp  (re.union  (str.to_re "\u{0A}")  (str.to.re "\u{26}"))) (re.++ (re.comp  (re.union  (str.to_re "\u{0A}")  (str.to.re "\u{26}"))) (re.++ (re.comp  (re.union  (str.to_re "\u{0A}")  (str.to.re "\u{26}"))) (re.++ (re.comp  (re.union  (str.to_re "\u{0A}")  (str.to.re "\u{26}"))) (re.++ (re.comp  (re.union  (str.to_re "\u{0A}")  (str.to.re "\u{26}"))) (re.++ (re.comp  (re.union  (str.to_re "\u{0A}")  (str.to.re "\u{26}"))) (re.++ (re.comp  (re.union  (str.to_re "\u{0A}")  (str.to.re "\u{26}"))) (re.++ (re.comp  (re.union  (str.to_re "\u{0A}")  (str.to.re "\u{26}"))) (re.++ (re.comp  (re.union  (str.to_re "\u{0A}")  (str.to.re "\u{26}"))) (re.++ (re.comp  (re.union  (str.to_re "\u{0A}")  (str.to.re "\u{26}"))) (re.++ (re.comp  (re.union  (str.to_re "\u{0A}")  (str.to.re "\u{26}"))) (re.++ (re.comp  (re.union  (str.to_re "\u{0A}")  (str.to.re "\u{26}"))) (re.++ (re.comp  (re.union  (str.to_re "\u{0A}")  (str.to.re "\u{26}"))) (re.++ (re.comp  (re.union  (str.to_re "\u{0A}")  (str.to.re "\u{26}"))) (re.++ (re.comp  (re.union  (str.to_re "\u{0A}")  (str.to.re "\u{26}"))) (re.++ (re.comp  (re.union  (str.to_re "\u{0A}")  (str.to.re "\u{26}"))) (re.++ (re.comp  (re.union  (str.to_re "\u{0A}")  (str.to.re "\u{26}"))) (re.++ (re.comp  (re.union  (str.to_re "\u{0A}")  (str.to.re "\u{26}"))) (re.++ (re.comp  (re.union  (str.to_re "\u{0A}")  (str.to.re "\u{26}"))) (re.++ (re.comp  (re.union  (str.to_re "\u{0A}")  (str.to.re "\u{26}"))) (re.++ (re.comp  (re.union  (str.to_re "\u{0A}")  (str.to.re "\u{26}"))) (re.++ (re.comp  (re.union  (str.to_re "\u{0A}")  (str.to.re "\u{26}"))) (re.++ (re.comp  (re.union  (str.to_re "\u{0A}")  (str.to.re "\u{26}"))) (re.++ (re.comp  (re.union  (str.to_re "\u{0A}")  (str.to.re "\u{26}"))) (re.++ (re.comp  (re.union  (str.to_re "\u{0A}")  (str.to.re "\u{26}"))) (re.++ (re.comp  (re.union  (str.to_re "\u{0A}")  (str.to.re "\u{26}"))) (re.++ (re.comp  (re.union  (str.to_re "\u{0A}")  (str.to.re "\u{26}"))) (re.++ (re.comp  (re.union  (str.to_re "\u{0A}")  (str.to.re "\u{26}"))) (re.++ (re.comp  (re.union  (str.to_re "\u{0A}")  (str.to.re "\u{26}"))) (re.++ (re.comp  (re.union  (str.to_re "\u{0A}")  (str.to.re "\u{26}"))) (re.++ (re.comp  (re.union  (str.to_re "\u{0A}")  (str.to.re "\u{26}"))) (re.++ (re.comp  (re.union  (str.to_re "\u{0A}")  (str.to.re "\u{26}"))) (re.++ (re.comp  (re.union  (str.to_re "\u{0A}")  (str.to.re "\u{26}"))) (re.++ (re.comp  (re.union  (str.to_re "\u{0A}")  (str.to.re "\u{26}"))) (re.++ (re.comp  (re.union  (str.to_re "\u{0A}")  (str.to.re "\u{26}"))) (re.++ (re.comp  (re.union  (str.to_re "\u{0A}")  (str.to.re "\u{26}"))) (re.++ (re.comp  (re.union  (str.to_re "\u{0A}")  (str.to.re "\u{26}"))) (re.++ (re.comp  (re.union  (str.to_re "\u{0A}")  (str.to.re "\u{26}"))) (re.++ (re.comp  (re.union  (str.to_re "\u{0A}")  (str.to.re "\u{26}"))) (re.++ (re.comp  (re.union  (str.to_re "\u{0A}")  (str.to.re "\u{26}"))) (re.++ (re.comp  (re.union  (str.to_re "\u{0A}")  (str.to.re "\u{26}"))) (re.++ (re.comp  (re.union  (str.to_re "\u{0A}")  (str.to.re "\u{26}"))) (re.++ (re.comp  (re.union  (str.to_re "\u{0A}")  (str.to.re "\u{26}"))) (re.++ (re.comp  (re.union  (str.to_re "\u{0A}")  (str.to.re "\u{26}"))) (re.++ (re.comp  (re.union  (str.to_re "\u{0A}")  (str.to.re "\u{26}"))) (re.++ (re.comp  (re.union  (str.to_re "\u{0A}")  (str.to.re "\u{26}"))) (re.++ (re.comp  (re.union  (str.to_re "\u{0A}")  (str.to.re "\u{26}"))) (re.++ (re.comp  (re.union  (str.to_re "\u{0A}")  (str.to.re "\u{26}"))) (re.++ (re.comp  (re.union  (str.to_re "\u{0A}")  (str.to.re "\u{26}"))) (re.++ (re.comp  (re.union  (str.to_re "\u{0A}")  (str.to.re "\u{26}"))) (re.++ (re.comp  (re.union  (str.to_re "\u{0A}")  (str.to.re "\u{26}"))) (re.++ (re.comp  (re.union  (str.to_re "\u{0A}")  (str.to.re "\u{26}"))) (re.++ (re.comp  (re.union  (str.to_re "\u{0A}")  (str.to.re "\u{26}"))) (re.++ (re.comp  (re.union  (str.to_re "\u{0A}")  (str.to.re "\u{26}"))) (re.++ (re.comp  (re.union  (str.to_re "\u{0A}")  (str.to.re "\u{26}"))) (re.++ (re.comp  (re.union  (str.to_re "\u{0A}")  (str.to.re "\u{26}"))) (re.++ (re.comp  (re.union  (str.to_re "\u{0A}")  (str.to.re "\u{26}"))) (re.++ (re.comp  (re.union  (str.to_re "\u{0A}")  (str.to.re "\u{26}"))) (re.++ (re.comp  (re.union  (str.to_re "\u{0A}")  (str.to.re "\u{26}"))) (re.++ (re.comp  (re.union  (str.to_re "\u{0A}")  (str.to.re "\u{26}"))) (re.++ (re.comp  (re.union  (str.to_re "\u{0A}")  (str.to.re "\u{26}"))) (re.++ (re.comp  (re.union  (str.to_re "\u{0A}")  (str.to.re "\u{26}"))) (re.++ (re.comp  (re.union  (str.to_re "\u{0A}")  (str.to.re "\u{26}"))) (re.++ (re.comp  (re.union  (str.to_re "\u{0A}")  (str.to.re "\u{26}"))) (re.++ (re.comp  (re.union  (str.to_re "\u{0A}")  (str.to.re "\u{26}"))) (re.++ (re.comp  (re.union  (str.to_re "\u{0A}")  (str.to.re "\u{26}"))) (re.++ (re.comp  (re.union  (str.to_re "\u{0A}")  (str.to.re "\u{26}"))) (re.++ (re.comp  (re.union  (str.to_re "\u{0A}")  (str.to.re "\u{26}"))) (re.++ (re.comp  (re.union  (str.to_re "\u{0A}")  (str.to.re "\u{26}"))) (re.++ (re.comp  (re.union  (str.to_re "\u{0A}")  (str.to.re "\u{26}"))) (re.++ (re.comp  (re.union  (str.to_re "\u{0A}")  (str.to.re "\u{26}"))) (re.++ (re.comp  (re.union  (str.to_re "\u{0A}")  (str.to.re "\u{26}"))) (re.++ (re.comp  (re.union  (str.to_re "\u{0A}")  (str.to.re "\u{26}"))) (re.++ (re.comp  (re.union  (str.to_re "\u{0A}")  (str.to.re "\u{26}"))) (re.++ (re.comp  (re.union  (str.to_re "\u{0A}")  (str.to.re "\u{26}"))) (re.++ (re.comp  (re.union  (str.to_re "\u{0A}")  (str.to.re "\u{26}"))) (re.++ (re.comp  (re.union  (str.to_re "\u{0A}")  (str.to.re "\u{26}"))) (re.++ (re.comp  (re.union  (str.to_re "\u{0A}")  (str.to.re "\u{26}"))) (re.++ (re.comp  (re.union  (str.to_re "\u{0A}")  (str.to.re "\u{26}"))) (re.++ (re.comp  (re.union  (str.to_re "\u{0A}")  (str.to.re "\u{26}"))) (re.++ (re.comp  (re.union  (str.to_re "\u{0A}")  (str.to.re "\u{26}"))) (re.++ (re.comp  (re.union  (str.to_re "\u{0A}")  (str.to.re "\u{26}"))) (re.++ (re.comp  (re.union  (str.to_re "\u{0A}")  (str.to.re "\u{26}"))) (re.++ (re.comp  (re.union  (str.to_re "\u{0A}")  (str.to.re "\u{26}"))) (re.++ (re.comp  (re.union  (str.to_re "\u{0A}")  (str.to.re "\u{26}"))) (re.++ (re.comp  (re.union  (str.to_re "\u{0A}")  (str.to.re "\u{26}"))) (re.++ (re.comp  (re.union  (str.to_re "\u{0A}")  (str.to.re "\u{26}"))) (re.++ (re.comp  (re.union  (str.to_re "\u{0A}")  (str.to.re "\u{26}"))) (re.++ (re.comp  (re.union  (str.to_re "\u{0A}")  (str.to.re "\u{26}"))) (re.++ (re.comp  (re.union  (str.to_re "\u{0A}")  (str.to.re "\u{26}"))) (re.++ (re.comp  (re.union  (str.to_re "\u{0A}")  (str.to.re "\u{26}"))) (re.++ (re.comp  (re.union  (str.to_re "\u{0A}")  (str.to.re "\u{26}"))) (re.++ (re.comp  (re.union  (str.to_re "\u{0A}")  (str.to.re "\u{26}"))) (re.++ (re.comp  (re.union  (str.to_re "\u{0A}")  (str.to.re "\u{26}"))) (re.++ (re.comp  (re.union  (str.to_re "\u{0A}")  (str.to.re "\u{26}"))) (re.++ (re.comp  (re.union  (str.to_re "\u{0A}")  (str.to.re "\u{26}"))) (re.++ (re.comp  (re.union  (str.to_re "\u{0A}")  (str.to.re "\u{26}"))) (re.++ (re.comp  (re.union  (str.to_re "\u{0A}")  (str.to.re "\u{26}"))) (re.++ (re.comp  (re.union  (str.to_re "\u{0A}")  (str.to.re "\u{26}"))) (re.++ (re.comp  (re.union  (str.to_re "\u{0A}")  (str.to.re "\u{26}"))) (re.++ (re.comp  (re.union  (str.to_re "\u{0A}")  (str.to.re "\u{26}"))) (re.++ (re.comp  (re.union  (str.to_re "\u{0A}")  (str.to.re "\u{26}"))) (re.++ (re.comp  (re.union  (str.to_re "\u{0A}")  (str.to.re "\u{26}"))) (re.++ (re.comp  (re.union  (str.to_re "\u{0A}")  (str.to.re "\u{26}"))) (re.++ (re.comp  (re.union  (str.to_re "\u{0A}")  (str.to.re "\u{26}"))) (re.++ (re.comp  (re.union  (str.to_re "\u{0A}")  (str.to.re "\u{26}"))) (re.++ (re.comp  (re.union  (str.to_re "\u{0A}")  (str.to.re "\u{26}"))) (re.++ (re.comp  (re.union  (str.to_re "\u{0A}")  (str.to.re "\u{26}"))) (re.++ (re.comp  (re.union  (str.to_re "\u{0A}")  (str.to.re "\u{26}"))) (re.++ (re.comp  (re.union  (str.to_re "\u{0A}")  (str.to.re "\u{26}"))) (re.++ (re.comp  (re.union  (str.to_re "\u{0A}")  (str.to.re "\u{26}"))) (re.++ (re.comp  (re.union  (str.to_re "\u{0A}")  (str.to.re "\u{26}"))) (re.++ (re.comp  (re.union  (str.to_re "\u{0A}")  (str.to.re "\u{26}"))) (re.++ (re.comp  (re.union  (str.to_re "\u{0A}")  (str.to.re "\u{26}"))) (re.++ (re.comp  (re.union  (str.to_re "\u{0A}")  (str.to.re "\u{26}"))) (re.++ (re.comp  (re.union  (str.to_re "\u{0A}")  (str.to.re "\u{26}"))) (re.++ (re.comp  (re.union  (str.to_re "\u{0A}")  (str.to.re "\u{26}"))) (re.++ (re.comp  (re.union  (str.to_re "\u{0A}")  (str.to.re "\u{26}"))) (re.++ (re.comp  (re.union  (str.to_re "\u{0A}")  (str.to.re "\u{26}"))) (re.++ (re.comp  (re.union  (str.to_re "\u{0A}")  (str.to.re "\u{26}"))) (re.++ (re.comp  (re.union  (str.to_re "\u{0A}")  (str.to.re "\u{26}"))) (re.++ (re.comp  (re.union  (str.to_re "\u{0A}")  (str.to.re "\u{26}"))) (re.++ (re.comp  (re.union  (str.to_re "\u{0A}")  (str.to.re "\u{26}"))) (re.++ (re.comp  (re.union  (str.to_re "\u{0A}")  (str.to.re "\u{26}"))) (re.++ (re.comp  (re.union  (str.to_re "\u{0A}")  (str.to.re "\u{26}"))) (re.++ (re.comp  (re.union  (str.to_re "\u{0A}")  (str.to.re "\u{26}"))) (re.++ (re.comp  (re.union  (str.to_re "\u{0A}")  (str.to.re "\u{26}"))) (re.++ (re.comp  (re.union  (str.to_re "\u{0A}")  (str.to.re "\u{26}"))) (re.++ (re.comp  (re.union  (str.to_re "\u{0A}")  (str.to.re "\u{26}"))) (re.++ (re.comp  (re.union  (str.to_re "\u{0A}")  (str.to.re "\u{26}"))) (re.++ (re.comp  (re.union  (str.to_re "\u{0A}")  (str.to.re "\u{26}"))) (re.++ (re.comp  (re.union  (str.to_re "\u{0A}")  (str.to.re "\u{26}"))) (re.++ (re.comp  (re.union  (str.to_re "\u{0A}")  (str.to.re "\u{26}"))) (re.++ (re.comp  (re.union  (str.to_re "\u{0A}")  (str.to.re "\u{26}"))) (re.++ (re.comp  (re.union  (str.to_re "\u{0A}")  (str.to.re "\u{26}"))) (re.++ (re.comp  (re.union  (str.to_re "\u{0A}")  (str.to.re "\u{26}"))) (re.++ (re.comp  (re.union  (str.to_re "\u{0A}")  (str.to.re "\u{26}"))) (re.++ (re.comp  (re.union  (str.to_re "\u{0A}")  (str.to.re "\u{26}"))) (re.++ (re.comp  (re.union  (str.to_re "\u{0A}")  (str.to.re "\u{26}"))) (re.++ (re.comp  (re.union  (str.to_re "\u{0A}")  (str.to.re "\u{26}"))) (re.++ (re.comp  (re.union  (str.to_re "\u{0A}")  (str.to.re "\u{26}"))) (re.++ (re.comp  (re.union  (str.to_re "\u{0A}")  (str.to.re "\u{26}"))) (re.++ (re.comp  (re.union  (str.to_re "\u{0A}")  (str.to.re "\u{26}"))) (re.++ (re.comp  (re.union  (str.to_re "\u{0A}")  (str.to.re "\u{26}"))) (re.++ (re.comp  (re.union  (str.to_re "\u{0A}")  (str.to.re "\u{26}"))) (re.++ (re.comp  (re.union  (str.to_re "\u{0A}")  (str.to.re "\u{26}"))) (re.++ (re.comp  (re.union  (str.to_re "\u{0A}")  (str.to.re "\u{26}"))) (re.++ (re.comp  (re.union  (str.to_re "\u{0A}")  (str.to.re "\u{26}"))) (re.++ (re.comp  (re.union  (str.to_re "\u{0A}")  (str.to.re "\u{26}"))) (re.++ (re.comp  (re.union  (str.to_re "\u{0A}")  (str.to.re "\u{26}"))) (re.++ (re.comp  (re.union  (str.to_re "\u{0A}")  (str.to.re "\u{26}"))) (re.++ (re.comp  (re.union  (str.to_re "\u{0A}")  (str.to.re "\u{26}"))) (re.++ (re.comp  (re.union  (str.to_re "\u{0A}")  (str.to.re "\u{26}"))) (re.++ (re.comp  (re.union  (str.to_re "\u{0A}")  (str.to.re "\u{26}"))) (re.++ (re.comp  (re.union  (str.to_re "\u{0A}")  (str.to.re "\u{26}"))) (re.++ (re.comp  (re.union  (str.to_re "\u{0A}")  (str.to.re "\u{26}"))) (re.++ (re.comp  (re.union  (str.to_re "\u{0A}")  (str.to.re "\u{26}"))) (re.++ (re.comp  (re.union  (str.to_re "\u{0A}")  (str.to.re "\u{26}"))) (re.++ (re.comp  (re.union  (str.to_re "\u{0A}")  (str.to.re "\u{26}"))) (re.++ (re.comp  (re.union  (str.to_re "\u{0A}")  (str.to.re "\u{26}"))) (re.++ (re.comp  (re.union  (str.to_re "\u{0A}")  (str.to.re "\u{26}"))) (re.++ (re.comp  (re.union  (str.to_re "\u{0A}")  (str.to.re "\u{26}"))) (re.++ (re.comp  (re.union  (str.to_re "\u{0A}")  (str.to.re "\u{26}"))) (re.++ (re.comp  (re.union  (str.to_re "\u{0A}")  (str.to.re "\u{26}"))) (re.++ (re.comp  (re.union  (str.to_re "\u{0A}")  (str.to.re "\u{26}"))) (re.++ (re.comp  (re.union  (str.to_re "\u{0A}")  (str.to.re "\u{26}"))) (re.++ (re.comp  (re.union  (str.to_re "\u{0A}")  (str.to.re "\u{26}"))) (re.++ (re.comp  (re.union  (str.to_re "\u{0A}")  (str.to.re "\u{26}"))) (re.++ (re.comp  (re.union  (str.to_re "\u{0A}")  (str.to.re "\u{26}"))) (re.++ (re.comp  (re.union  (str.to_re "\u{0A}")  (str.to.re "\u{26}"))) (re.++ (re.comp  (re.union  (str.to_re "\u{0A}")  (str.to.re "\u{26}"))) (re.++ (re.comp  (re.union  (str.to_re "\u{0A}")  (str.to.re "\u{26}"))) (re.++ (re.comp  (re.union  (str.to_re "\u{0A}")  (str.to.re "\u{26}"))) (re.++ (re.comp  (re.union  (str.to_re "\u{0A}")  (str.to.re "\u{26}"))) (re.++ (re.comp  (re.union  (str.to_re "\u{0A}")  (str.to.re "\u{26}"))) (re.++ (re.comp  (re.union  (str.to_re "\u{0A}")  (str.to.re "\u{26}"))) (re.++ (re.comp  (re.union  (str.to_re "\u{0A}")  (str.to.re "\u{26}"))) (re.++ (re.comp  (re.union  (str.to_re "\u{0A}")  (str.to.re "\u{26}"))) (re.++ (re.comp  (re.union  (str.to_re "\u{0A}")  (str.to.re "\u{26}"))) (re.++ (re.comp  (re.union  (str.to_re "\u{0A}")  (str.to.re "\u{26}"))) (re.++ (re.comp  (re.union  (str.to_re "\u{0A}")  (str.to.re "\u{26}"))) (re.++ (re.comp  (re.union  (str.to_re "\u{0A}")  (str.to.re "\u{26}"))) (re.++ (re.comp  (re.union  (str.to_re "\u{0A}")  (str.to.re "\u{26}"))) (re.++ (re.comp  (re.union  (str.to_re "\u{0A}")  (str.to.re "\u{26}"))) (re.++ (re.comp  (re.union  (str.to_re "\u{0A}")  (str.to.re "\u{26}"))) (re.++ (re.comp  (re.union  (str.to_re "\u{0A}")  (str.to.re "\u{26}"))) (re.++ (re.comp  (re.union  (str.to_re "\u{0A}")  (str.to.re "\u{26}"))) (re.++ (re.comp  (re.union  (str.to_re "\u{0A}")  (str.to.re "\u{26}"))) (re.++ (re.comp  (re.union  (str.to_re "\u{0A}")  (str.to.re "\u{26}"))) (re.++ (re.comp  (re.union  (str.to_re "\u{0A}")  (str.to.re "\u{26}"))) (re.++ (re.comp  (re.union  (str.to_re "\u{0A}")  (str.to.re "\u{26}"))) (re.++ (re.comp  (re.union  (str.to_re "\u{0A}")  (str.to.re "\u{26}"))) (re.++ (re.comp  (re.union  (str.to_re "\u{0A}")  (str.to.re "\u{26}"))) (re.++ (re.comp  (re.union  (str.to_re "\u{0A}")  (str.to.re "\u{26}"))) (re.++ (re.comp  (re.union  (str.to_re "\u{0A}")  (str.to.re "\u{26}"))) (re.++ (re.comp  (re.union  (str.to_re "\u{0A}")  (str.to.re "\u{26}"))) (re.++ (re.comp  (re.union  (str.to_re "\u{0A}")  (str.to.re "\u{26}"))) (re.++ (re.comp  (re.union  (str.to_re "\u{0A}")  (str.to.re "\u{26}"))) (re.++ (re.comp  (re.union  (str.to_re "\u{0A}")  (str.to.re "\u{26}"))) (re.++ (re.comp  (re.union  (str.to_re "\u{0A}")  (str.to.re "\u{26}"))) (re.++ (re.comp  (re.union  (str.to_re "\u{0A}")  (str.to.re "\u{26}"))) (re.++ (re.comp  (re.union  (str.to_re "\u{0A}")  (str.to.re "\u{26}"))) (re.++ (re.comp  (re.union  (str.to_re "\u{0A}")  (str.to.re "\u{26}"))) (re.++ (re.comp  (re.union  (str.to_re "\u{0A}")  (str.to.re "\u{26}"))) (re.++ (re.comp  (re.union  (str.to_re "\u{0A}")  (str.to.re "\u{26}"))) (re.++ (re.comp  (re.union  (str.to_re "\u{0A}")  (str.to.re "\u{26}"))) (re.++ (re.comp  (re.union  (str.to_re "\u{0A}")  (str.to.re "\u{26}"))) (re.++ (re.comp  (re.union  (str.to_re "\u{0A}")  (str.to.re "\u{26}"))) (re.++ (re.comp  (re.union  (str.to_re "\u{0A}")  (str.to.re "\u{26}"))) (re.++ (re.comp  (re.union  (str.to_re "\u{0A}")  (str.to.re "\u{26}"))) (re.++ (re.comp  (re.union  (str.to_re "\u{0A}")  (str.to.re "\u{26}"))) (re.++ (re.comp  (re.union  (str.to_re "\u{0A}")  (str.to.re "\u{26}"))) (re.++ (re.comp  (re.union  (str.to_re "\u{0A}")  (str.to.re "\u{26}"))) (re.++ (re.comp  (re.union  (str.to_re "\u{0A}")  (str.to.re "\u{26}"))) (re.++ (re.comp  (re.union  (str.to_re "\u{0A}")  (str.to.re "\u{26}"))) (re.++ (re.comp  (re.union  (str.to_re "\u{0A}")  (str.to.re "\u{26}"))) (re.++ (re.comp  (re.union  (str.to_re "\u{0A}")  (str.to.re "\u{26}"))) (re.++ (re.comp  (re.union  (str.to_re "\u{0A}")  (str.to.re "\u{26}"))) (re.++ (re.comp  (re.union  (str.to_re "\u{0A}")  (str.to.re "\u{26}"))) (re.++ (re.comp  (re.union  (str.to_re "\u{0A}")  (str.to.re "\u{26}"))) (re.++ (re.comp  (re.union  (str.to_re "\u{0A}")  (str.to.re "\u{26}"))) (re.++ (re.comp  (re.union  (str.to_re "\u{0A}")  (str.to.re "\u{26}"))) (re.++ (re.comp  (re.union  (str.to_re "\u{0A}")  (str.to.re "\u{26}"))) (re.++ (re.comp  (re.union  (str.to_re "\u{0A}")  (str.to.re "\u{26}"))) (re.comp  (re.union  (str.to_re "\u{0A}")  (str.to.re "\u{26}")))))))))))))))))))))))))))))))))))))))))))))))))))))))))))))))))))))))))))))))))))))))))))))))))))))))))))))))))))))))))))))))))))))))))))))))))))))))))))))))))))))))))))))))))))))))))))))))))))))))))))))))))))))))))))))))))))))))))))))))))))))))))))))))))))  (re.++ (re.* (re.comp  (str.to_re "\u{0A}")) ) (re.++  (re.++  (re.union  (str.to.re "\u{26}")  (str.to.re "\u{3f}")) (re.++  (re.union  (str.to.re "\u{75}")  (str.to.re "\u{55}")) (re.++  (re.union  (str.to.re "\u{72}")  (str.to.re "\u{52}")) (re.++  (re.union  (str.to.re "\u{6c}")  (str.to.re "\u{4c}"))  (str.to.re "\u{3d}")))))  (re.++ (re.comp  (re.union  (str.to_re "\u{0A}")  (str.to.re "\u{26}"))) (re.++ (re.comp  (re.union  (str.to_re "\u{0A}")  (str.to.re "\u{26}"))) (re.++ (re.comp  (re.union  (str.to_re "\u{0A}")  (str.to.re "\u{26}"))) (re.++ (re.comp  (re.union  (str.to_re "\u{0A}")  (str.to.re "\u{26}"))) (re.++ (re.comp  (re.union  (str.to_re "\u{0A}")  (str.to.re "\u{26}"))) (re.++ (re.comp  (re.union  (str.to_re "\u{0A}")  (str.to.re "\u{26}"))) (re.++ (re.comp  (re.union  (str.to_re "\u{0A}")  (str.to.re "\u{26}"))) (re.++ (re.comp  (re.union  (str.to_re "\u{0A}")  (str.to.re "\u{26}"))) (re.++ (re.comp  (re.union  (str.to_re "\u{0A}")  (str.to.re "\u{26}"))) (re.++ (re.comp  (re.union  (str.to_re "\u{0A}")  (str.to.re "\u{26}"))) (re.++ (re.comp  (re.union  (str.to_re "\u{0A}")  (str.to.re "\u{26}"))) (re.++ (re.comp  (re.union  (str.to_re "\u{0A}")  (str.to.re "\u{26}"))) (re.++ (re.comp  (re.union  (str.to_re "\u{0A}")  (str.to.re "\u{26}"))) (re.++ (re.comp  (re.union  (str.to_re "\u{0A}")  (str.to.re "\u{26}"))) (re.++ (re.comp  (re.union  (str.to_re "\u{0A}")  (str.to.re "\u{26}"))) (re.++ (re.comp  (re.union  (str.to_re "\u{0A}")  (str.to.re "\u{26}"))) (re.++ (re.comp  (re.union  (str.to_re "\u{0A}")  (str.to.re "\u{26}"))) (re.++ (re.comp  (re.union  (str.to_re "\u{0A}")  (str.to.re "\u{26}"))) (re.++ (re.comp  (re.union  (str.to_re "\u{0A}")  (str.to.re "\u{26}"))) (re.++ (re.comp  (re.union  (str.to_re "\u{0A}")  (str.to.re "\u{26}"))) (re.++ (re.comp  (re.union  (str.to_re "\u{0A}")  (str.to.re "\u{26}"))) (re.++ (re.comp  (re.union  (str.to_re "\u{0A}")  (str.to.re "\u{26}"))) (re.++ (re.comp  (re.union  (str.to_re "\u{0A}")  (str.to.re "\u{26}"))) (re.++ (re.comp  (re.union  (str.to_re "\u{0A}")  (str.to.re "\u{26}"))) (re.++ (re.comp  (re.union  (str.to_re "\u{0A}")  (str.to.re "\u{26}"))) (re.++ (re.comp  (re.union  (str.to_re "\u{0A}")  (str.to.re "\u{26}"))) (re.++ (re.comp  (re.union  (str.to_re "\u{0A}")  (str.to.re "\u{26}"))) (re.++ (re.comp  (re.union  (str.to_re "\u{0A}")  (str.to.re "\u{26}"))) (re.++ (re.comp  (re.union  (str.to_re "\u{0A}")  (str.to.re "\u{26}"))) (re.++ (re.comp  (re.union  (str.to_re "\u{0A}")  (str.to.re "\u{26}"))) (re.++ (re.comp  (re.union  (str.to_re "\u{0A}")  (str.to.re "\u{26}"))) (re.++ (re.comp  (re.union  (str.to_re "\u{0A}")  (str.to.re "\u{26}"))) (re.++ (re.comp  (re.union  (str.to_re "\u{0A}")  (str.to.re "\u{26}"))) (re.++ (re.comp  (re.union  (str.to_re "\u{0A}")  (str.to.re "\u{26}"))) (re.++ (re.comp  (re.union  (str.to_re "\u{0A}")  (str.to.re "\u{26}"))) (re.++ (re.comp  (re.union  (str.to_re "\u{0A}")  (str.to.re "\u{26}"))) (re.++ (re.comp  (re.union  (str.to_re "\u{0A}")  (str.to.re "\u{26}"))) (re.++ (re.comp  (re.union  (str.to_re "\u{0A}")  (str.to.re "\u{26}"))) (re.++ (re.comp  (re.union  (str.to_re "\u{0A}")  (str.to.re "\u{26}"))) (re.++ (re.comp  (re.union  (str.to_re "\u{0A}")  (str.to.re "\u{26}"))) (re.++ (re.comp  (re.union  (str.to_re "\u{0A}")  (str.to.re "\u{26}"))) (re.++ (re.comp  (re.union  (str.to_re "\u{0A}")  (str.to.re "\u{26}"))) (re.++ (re.comp  (re.union  (str.to_re "\u{0A}")  (str.to.re "\u{26}"))) (re.++ (re.comp  (re.union  (str.to_re "\u{0A}")  (str.to.re "\u{26}"))) (re.++ (re.comp  (re.union  (str.to_re "\u{0A}")  (str.to.re "\u{26}"))) (re.++ (re.comp  (re.union  (str.to_re "\u{0A}")  (str.to.re "\u{26}"))) (re.++ (re.comp  (re.union  (str.to_re "\u{0A}")  (str.to.re "\u{26}"))) (re.++ (re.comp  (re.union  (str.to_re "\u{0A}")  (str.to.re "\u{26}"))) (re.++ (re.comp  (re.union  (str.to_re "\u{0A}")  (str.to.re "\u{26}"))) (re.++ (re.comp  (re.union  (str.to_re "\u{0A}")  (str.to.re "\u{26}"))) (re.++ (re.comp  (re.union  (str.to_re "\u{0A}")  (str.to.re "\u{26}"))) (re.++ (re.comp  (re.union  (str.to_re "\u{0A}")  (str.to.re "\u{26}"))) (re.++ (re.comp  (re.union  (str.to_re "\u{0A}")  (str.to.re "\u{26}"))) (re.++ (re.comp  (re.union  (str.to_re "\u{0A}")  (str.to.re "\u{26}"))) (re.++ (re.comp  (re.union  (str.to_re "\u{0A}")  (str.to.re "\u{26}"))) (re.++ (re.comp  (re.union  (str.to_re "\u{0A}")  (str.to.re "\u{26}"))) (re.++ (re.comp  (re.union  (str.to_re "\u{0A}")  (str.to.re "\u{26}"))) (re.++ (re.comp  (re.union  (str.to_re "\u{0A}")  (str.to.re "\u{26}"))) (re.++ (re.comp  (re.union  (str.to_re "\u{0A}")  (str.to.re "\u{26}"))) (re.++ (re.comp  (re.union  (str.to_re "\u{0A}")  (str.to.re "\u{26}"))) (re.++ (re.comp  (re.union  (str.to_re "\u{0A}")  (str.to.re "\u{26}"))) (re.++ (re.comp  (re.union  (str.to_re "\u{0A}")  (str.to.re "\u{26}"))) (re.++ (re.comp  (re.union  (str.to_re "\u{0A}")  (str.to.re "\u{26}"))) (re.++ (re.comp  (re.union  (str.to_re "\u{0A}")  (str.to.re "\u{26}"))) (re.++ (re.comp  (re.union  (str.to_re "\u{0A}")  (str.to.re "\u{26}"))) (re.++ (re.comp  (re.union  (str.to_re "\u{0A}")  (str.to.re "\u{26}"))) (re.++ (re.comp  (re.union  (str.to_re "\u{0A}")  (str.to.re "\u{26}"))) (re.++ (re.comp  (re.union  (str.to_re "\u{0A}")  (str.to.re "\u{26}"))) (re.++ (re.comp  (re.union  (str.to_re "\u{0A}")  (str.to.re "\u{26}"))) (re.++ (re.comp  (re.union  (str.to_re "\u{0A}")  (str.to.re "\u{26}"))) (re.++ (re.comp  (re.union  (str.to_re "\u{0A}")  (str.to.re "\u{26}"))) (re.++ (re.comp  (re.union  (str.to_re "\u{0A}")  (str.to.re "\u{26}"))) (re.++ (re.comp  (re.union  (str.to_re "\u{0A}")  (str.to.re "\u{26}"))) (re.++ (re.comp  (re.union  (str.to_re "\u{0A}")  (str.to.re "\u{26}"))) (re.++ (re.comp  (re.union  (str.to_re "\u{0A}")  (str.to.re "\u{26}"))) (re.++ (re.comp  (re.union  (str.to_re "\u{0A}")  (str.to.re "\u{26}"))) (re.++ (re.comp  (re.union  (str.to_re "\u{0A}")  (str.to.re "\u{26}"))) (re.++ (re.comp  (re.union  (str.to_re "\u{0A}")  (str.to.re "\u{26}"))) (re.++ (re.comp  (re.union  (str.to_re "\u{0A}")  (str.to.re "\u{26}"))) (re.++ (re.comp  (re.union  (str.to_re "\u{0A}")  (str.to.re "\u{26}"))) (re.++ (re.comp  (re.union  (str.to_re "\u{0A}")  (str.to.re "\u{26}"))) (re.++ (re.comp  (re.union  (str.to_re "\u{0A}")  (str.to.re "\u{26}"))) (re.++ (re.comp  (re.union  (str.to_re "\u{0A}")  (str.to.re "\u{26}"))) (re.++ (re.comp  (re.union  (str.to_re "\u{0A}")  (str.to.re "\u{26}"))) (re.++ (re.comp  (re.union  (str.to_re "\u{0A}")  (str.to.re "\u{26}"))) (re.++ (re.comp  (re.union  (str.to_re "\u{0A}")  (str.to.re "\u{26}"))) (re.++ (re.comp  (re.union  (str.to_re "\u{0A}")  (str.to.re "\u{26}"))) (re.++ (re.comp  (re.union  (str.to_re "\u{0A}")  (str.to.re "\u{26}"))) (re.++ (re.comp  (re.union  (str.to_re "\u{0A}")  (str.to.re "\u{26}"))) (re.++ (re.comp  (re.union  (str.to_re "\u{0A}")  (str.to.re "\u{26}"))) (re.++ (re.comp  (re.union  (str.to_re "\u{0A}")  (str.to.re "\u{26}"))) (re.++ (re.comp  (re.union  (str.to_re "\u{0A}")  (str.to.re "\u{26}"))) (re.++ (re.comp  (re.union  (str.to_re "\u{0A}")  (str.to.re "\u{26}"))) (re.++ (re.comp  (re.union  (str.to_re "\u{0A}")  (str.to.re "\u{26}"))) (re.++ (re.comp  (re.union  (str.to_re "\u{0A}")  (str.to.re "\u{26}"))) (re.++ (re.comp  (re.union  (str.to_re "\u{0A}")  (str.to.re "\u{26}"))) (re.++ (re.comp  (re.union  (str.to_re "\u{0A}")  (str.to.re "\u{26}"))) (re.++ (re.comp  (re.union  (str.to_re "\u{0A}")  (str.to.re "\u{26}"))) (re.++ (re.comp  (re.union  (str.to_re "\u{0A}")  (str.to.re "\u{26}"))) (re.++ (re.comp  (re.union  (str.to_re "\u{0A}")  (str.to.re "\u{26}"))) (re.++ (re.comp  (re.union  (str.to_re "\u{0A}")  (str.to.re "\u{26}"))) (re.++ (re.comp  (re.union  (str.to_re "\u{0A}")  (str.to.re "\u{26}"))) (re.++ (re.comp  (re.union  (str.to_re "\u{0A}")  (str.to.re "\u{26}"))) (re.++ (re.comp  (re.union  (str.to_re "\u{0A}")  (str.to.re "\u{26}"))) (re.++ (re.comp  (re.union  (str.to_re "\u{0A}")  (str.to.re "\u{26}"))) (re.++ (re.comp  (re.union  (str.to_re "\u{0A}")  (str.to.re "\u{26}"))) (re.++ (re.comp  (re.union  (str.to_re "\u{0A}")  (str.to.re "\u{26}"))) (re.++ (re.comp  (re.union  (str.to_re "\u{0A}")  (str.to.re "\u{26}"))) (re.++ (re.comp  (re.union  (str.to_re "\u{0A}")  (str.to.re "\u{26}"))) (re.++ (re.comp  (re.union  (str.to_re "\u{0A}")  (str.to.re "\u{26}"))) (re.++ (re.comp  (re.union  (str.to_re "\u{0A}")  (str.to.re "\u{26}"))) (re.++ (re.comp  (re.union  (str.to_re "\u{0A}")  (str.to.re "\u{26}"))) (re.++ (re.comp  (re.union  (str.to_re "\u{0A}")  (str.to.re "\u{26}"))) (re.++ (re.comp  (re.union  (str.to_re "\u{0A}")  (str.to.re "\u{26}"))) (re.++ (re.comp  (re.union  (str.to_re "\u{0A}")  (str.to.re "\u{26}"))) (re.++ (re.comp  (re.union  (str.to_re "\u{0A}")  (str.to.re "\u{26}"))) (re.++ (re.comp  (re.union  (str.to_re "\u{0A}")  (str.to.re "\u{26}"))) (re.++ (re.comp  (re.union  (str.to_re "\u{0A}")  (str.to.re "\u{26}"))) (re.++ (re.comp  (re.union  (str.to_re "\u{0A}")  (str.to.re "\u{26}"))) (re.++ (re.comp  (re.union  (str.to_re "\u{0A}")  (str.to.re "\u{26}"))) (re.++ (re.comp  (re.union  (str.to_re "\u{0A}")  (str.to.re "\u{26}"))) (re.++ (re.comp  (re.union  (str.to_re "\u{0A}")  (str.to.re "\u{26}"))) (re.++ (re.comp  (re.union  (str.to_re "\u{0A}")  (str.to.re "\u{26}"))) (re.++ (re.comp  (re.union  (str.to_re "\u{0A}")  (str.to.re "\u{26}"))) (re.++ (re.comp  (re.union  (str.to_re "\u{0A}")  (str.to.re "\u{26}"))) (re.++ (re.comp  (re.union  (str.to_re "\u{0A}")  (str.to.re "\u{26}"))) (re.++ (re.comp  (re.union  (str.to_re "\u{0A}")  (str.to.re "\u{26}"))) (re.++ (re.comp  (re.union  (str.to_re "\u{0A}")  (str.to.re "\u{26}"))) (re.++ (re.comp  (re.union  (str.to_re "\u{0A}")  (str.to.re "\u{26}"))) (re.++ (re.comp  (re.union  (str.to_re "\u{0A}")  (str.to.re "\u{26}"))) (re.++ (re.comp  (re.union  (str.to_re "\u{0A}")  (str.to.re "\u{26}"))) (re.++ (re.comp  (re.union  (str.to_re "\u{0A}")  (str.to.re "\u{26}"))) (re.++ (re.comp  (re.union  (str.to_re "\u{0A}")  (str.to.re "\u{26}"))) (re.++ (re.comp  (re.union  (str.to_re "\u{0A}")  (str.to.re "\u{26}"))) (re.++ (re.comp  (re.union  (str.to_re "\u{0A}")  (str.to.re "\u{26}"))) (re.++ (re.comp  (re.union  (str.to_re "\u{0A}")  (str.to.re "\u{26}"))) (re.++ (re.comp  (re.union  (str.to_re "\u{0A}")  (str.to.re "\u{26}"))) (re.++ (re.comp  (re.union  (str.to_re "\u{0A}")  (str.to.re "\u{26}"))) (re.++ (re.comp  (re.union  (str.to_re "\u{0A}")  (str.to.re "\u{26}"))) (re.++ (re.comp  (re.union  (str.to_re "\u{0A}")  (str.to.re "\u{26}"))) (re.++ (re.comp  (re.union  (str.to_re "\u{0A}")  (str.to.re "\u{26}"))) (re.++ (re.comp  (re.union  (str.to_re "\u{0A}")  (str.to.re "\u{26}"))) (re.++ (re.comp  (re.union  (str.to_re "\u{0A}")  (str.to.re "\u{26}"))) (re.++ (re.comp  (re.union  (str.to_re "\u{0A}")  (str.to.re "\u{26}"))) (re.++ (re.comp  (re.union  (str.to_re "\u{0A}")  (str.to.re "\u{26}"))) (re.++ (re.comp  (re.union  (str.to_re "\u{0A}")  (str.to.re "\u{26}"))) (re.++ (re.comp  (re.union  (str.to_re "\u{0A}")  (str.to.re "\u{26}"))) (re.++ (re.comp  (re.union  (str.to_re "\u{0A}")  (str.to.re "\u{26}"))) (re.++ (re.comp  (re.union  (str.to_re "\u{0A}")  (str.to.re "\u{26}"))) (re.++ (re.comp  (re.union  (str.to_re "\u{0A}")  (str.to.re "\u{26}"))) (re.++ (re.comp  (re.union  (str.to_re "\u{0A}")  (str.to.re "\u{26}"))) (re.++ (re.comp  (re.union  (str.to_re "\u{0A}")  (str.to.re "\u{26}"))) (re.++ (re.comp  (re.union  (str.to_re "\u{0A}")  (str.to.re "\u{26}"))) (re.++ (re.comp  (re.union  (str.to_re "\u{0A}")  (str.to.re "\u{26}"))) (re.++ (re.comp  (re.union  (str.to_re "\u{0A}")  (str.to.re "\u{26}"))) (re.++ (re.comp  (re.union  (str.to_re "\u{0A}")  (str.to.re "\u{26}"))) (re.++ (re.comp  (re.union  (str.to_re "\u{0A}")  (str.to.re "\u{26}"))) (re.++ (re.comp  (re.union  (str.to_re "\u{0A}")  (str.to.re "\u{26}"))) (re.++ (re.comp  (re.union  (str.to_re "\u{0A}")  (str.to.re "\u{26}"))) (re.++ (re.comp  (re.union  (str.to_re "\u{0A}")  (str.to.re "\u{26}"))) (re.++ (re.comp  (re.union  (str.to_re "\u{0A}")  (str.to.re "\u{26}"))) (re.++ (re.comp  (re.union  (str.to_re "\u{0A}")  (str.to.re "\u{26}"))) (re.++ (re.comp  (re.union  (str.to_re "\u{0A}")  (str.to.re "\u{26}"))) (re.++ (re.comp  (re.union  (str.to_re "\u{0A}")  (str.to.re "\u{26}"))) (re.++ (re.comp  (re.union  (str.to_re "\u{0A}")  (str.to.re "\u{26}"))) (re.++ (re.comp  (re.union  (str.to_re "\u{0A}")  (str.to.re "\u{26}"))) (re.++ (re.comp  (re.union  (str.to_re "\u{0A}")  (str.to.re "\u{26}"))) (re.++ (re.comp  (re.union  (str.to_re "\u{0A}")  (str.to.re "\u{26}"))) (re.++ (re.comp  (re.union  (str.to_re "\u{0A}")  (str.to.re "\u{26}"))) (re.++ (re.comp  (re.union  (str.to_re "\u{0A}")  (str.to.re "\u{26}"))) (re.++ (re.comp  (re.union  (str.to_re "\u{0A}")  (str.to.re "\u{26}"))) (re.++ (re.comp  (re.union  (str.to_re "\u{0A}")  (str.to.re "\u{26}"))) (re.++ (re.comp  (re.union  (str.to_re "\u{0A}")  (str.to.re "\u{26}"))) (re.++ (re.comp  (re.union  (str.to_re "\u{0A}")  (str.to.re "\u{26}"))) (re.++ (re.comp  (re.union  (str.to_re "\u{0A}")  (str.to.re "\u{26}"))) (re.++ (re.comp  (re.union  (str.to_re "\u{0A}")  (str.to.re "\u{26}"))) (re.++ (re.comp  (re.union  (str.to_re "\u{0A}")  (str.to.re "\u{26}"))) (re.++ (re.comp  (re.union  (str.to_re "\u{0A}")  (str.to.re "\u{26}"))) (re.++ (re.comp  (re.union  (str.to_re "\u{0A}")  (str.to.re "\u{26}"))) (re.++ (re.comp  (re.union  (str.to_re "\u{0A}")  (str.to.re "\u{26}"))) (re.++ (re.comp  (re.union  (str.to_re "\u{0A}")  (str.to.re "\u{26}"))) (re.++ (re.comp  (re.union  (str.to_re "\u{0A}")  (str.to.re "\u{26}"))) (re.++ (re.comp  (re.union  (str.to_re "\u{0A}")  (str.to.re "\u{26}"))) (re.++ (re.comp  (re.union  (str.to_re "\u{0A}")  (str.to.re "\u{26}"))) (re.++ (re.comp  (re.union  (str.to_re "\u{0A}")  (str.to.re "\u{26}"))) (re.++ (re.comp  (re.union  (str.to_re "\u{0A}")  (str.to.re "\u{26}"))) (re.++ (re.comp  (re.union  (str.to_re "\u{0A}")  (str.to.re "\u{26}"))) (re.++ (re.comp  (re.union  (str.to_re "\u{0A}")  (str.to.re "\u{26}"))) (re.++ (re.comp  (re.union  (str.to_re "\u{0A}")  (str.to.re "\u{26}"))) (re.++ (re.comp  (re.union  (str.to_re "\u{0A}")  (str.to.re "\u{26}"))) (re.++ (re.comp  (re.union  (str.to_re "\u{0A}")  (str.to.re "\u{26}"))) (re.++ (re.comp  (re.union  (str.to_re "\u{0A}")  (str.to.re "\u{26}"))) (re.++ (re.comp  (re.union  (str.to_re "\u{0A}")  (str.to.re "\u{26}"))) (re.++ (re.comp  (re.union  (str.to_re "\u{0A}")  (str.to.re "\u{26}"))) (re.++ (re.comp  (re.union  (str.to_re "\u{0A}")  (str.to.re "\u{26}"))) (re.++ (re.comp  (re.union  (str.to_re "\u{0A}")  (str.to.re "\u{26}"))) (re.++ (re.comp  (re.union  (str.to_re "\u{0A}")  (str.to.re "\u{26}"))) (re.++ (re.comp  (re.union  (str.to_re "\u{0A}")  (str.to.re "\u{26}"))) (re.++ (re.comp  (re.union  (str.to_re "\u{0A}")  (str.to.re "\u{26}"))) (re.++ (re.comp  (re.union  (str.to_re "\u{0A}")  (str.to.re "\u{26}"))) (re.++ (re.comp  (re.union  (str.to_re "\u{0A}")  (str.to.re "\u{26}"))) (re.++ (re.comp  (re.union  (str.to_re "\u{0A}")  (str.to.re "\u{26}"))) (re.++ (re.comp  (re.union  (str.to_re "\u{0A}")  (str.to.re "\u{26}"))) (re.++ (re.comp  (re.union  (str.to_re "\u{0A}")  (str.to.re "\u{26}"))) (re.++ (re.comp  (re.union  (str.to_re "\u{0A}")  (str.to.re "\u{26}"))) (re.++ (re.comp  (re.union  (str.to_re "\u{0A}")  (str.to.re "\u{26}"))) (re.++ (re.comp  (re.union  (str.to_re "\u{0A}")  (str.to.re "\u{26}"))) (re.++ (re.comp  (re.union  (str.to_re "\u{0A}")  (str.to.re "\u{26}"))) (re.++ (re.comp  (re.union  (str.to_re "\u{0A}")  (str.to.re "\u{26}"))) (re.++ (re.comp  (re.union  (str.to_re "\u{0A}")  (str.to.re "\u{26}"))) (re.++ (re.comp  (re.union  (str.to_re "\u{0A}")  (str.to.re "\u{26}"))) (re.++ (re.comp  (re.union  (str.to_re "\u{0A}")  (str.to.re "\u{26}"))) (re.++ (re.comp  (re.union  (str.to_re "\u{0A}")  (str.to.re "\u{26}"))) (re.++ (re.comp  (re.union  (str.to_re "\u{0A}")  (str.to.re "\u{26}"))) (re.++ (re.comp  (re.union  (str.to_re "\u{0A}")  (str.to.re "\u{26}"))) (re.++ (re.comp  (re.union  (str.to_re "\u{0A}")  (str.to.re "\u{26}"))) (re.++ (re.comp  (re.union  (str.to_re "\u{0A}")  (str.to.re "\u{26}"))) (re.++ (re.comp  (re.union  (str.to_re "\u{0A}")  (str.to.re "\u{26}"))) (re.++ (re.comp  (re.union  (str.to_re "\u{0A}")  (str.to.re "\u{26}"))) (re.++ (re.comp  (re.union  (str.to_re "\u{0A}")  (str.to.re "\u{26}"))) (re.++ (re.comp  (re.union  (str.to_re "\u{0A}")  (str.to.re "\u{26}"))) (re.++ (re.comp  (re.union  (str.to_re "\u{0A}")  (str.to.re "\u{26}"))) (re.++ (re.comp  (re.union  (str.to_re "\u{0A}")  (str.to.re "\u{26}"))) (re.++ (re.comp  (re.union  (str.to_re "\u{0A}")  (str.to.re "\u{26}"))) (re.++ (re.comp  (re.union  (str.to_re "\u{0A}")  (str.to.re "\u{26}"))) (re.++ (re.comp  (re.union  (str.to_re "\u{0A}")  (str.to.re "\u{26}"))) (re.++ (re.comp  (re.union  (str.to_re "\u{0A}")  (str.to.re "\u{26}"))) (re.++ (re.comp  (re.union  (str.to_re "\u{0A}")  (str.to.re "\u{26}"))) (re.++ (re.comp  (re.union  (str.to_re "\u{0A}")  (str.to.re "\u{26}"))) (re.++ (re.comp  (re.union  (str.to_re "\u{0A}")  (str.to.re "\u{26}"))) (re.++ (re.comp  (re.union  (str.to_re "\u{0A}")  (str.to.re "\u{26}"))) (re.++ (re.comp  (re.union  (str.to_re "\u{0A}")  (str.to.re "\u{26}"))) (re.++ (re.comp  (re.union  (str.to_re "\u{0A}")  (str.to.re "\u{26}"))) (re.++ (re.comp  (re.union  (str.to_re "\u{0A}")  (str.to.re "\u{26}"))) (re.++ (re.comp  (re.union  (str.to_re "\u{0A}")  (str.to.re "\u{26}"))) (re.++ (re.comp  (re.union  (str.to_re "\u{0A}")  (str.to.re "\u{26}"))) (re.++ (re.comp  (re.union  (str.to_re "\u{0A}")  (str.to.re "\u{26}"))) (re.++ (re.comp  (re.union  (str.to_re "\u{0A}")  (str.to.re "\u{26}"))) (re.++ (re.comp  (re.union  (str.to_re "\u{0A}")  (str.to.re "\u{26}"))) (re.++ (re.comp  (re.union  (str.to_re "\u{0A}")  (str.to.re "\u{26}"))) (re.++ (re.comp  (re.union  (str.to_re "\u{0A}")  (str.to.re "\u{26}"))) (re.++ (re.comp  (re.union  (str.to_re "\u{0A}")  (str.to.re "\u{26}"))) (re.++ (re.comp  (re.union  (str.to_re "\u{0A}")  (str.to.re "\u{26}"))) (re.++ (re.comp  (re.union  (str.to_re "\u{0A}")  (str.to.re "\u{26}"))) (re.++ (re.comp  (re.union  (str.to_re "\u{0A}")  (str.to.re "\u{26}"))) (re.++ (re.comp  (re.union  (str.to_re "\u{0A}")  (str.to.re "\u{26}"))) (re.++ (re.comp  (re.union  (str.to_re "\u{0A}")  (str.to.re "\u{26}"))) (re.++ (re.comp  (re.union  (str.to_re "\u{0A}")  (str.to.re "\u{26}"))) (re.++ (re.comp  (re.union  (str.to_re "\u{0A}")  (str.to.re "\u{26}"))) (re.++ (re.comp  (re.union  (str.to_re "\u{0A}")  (str.to.re "\u{26}"))) (re.++ (re.comp  (re.union  (str.to_re "\u{0A}")  (str.to.re "\u{26}"))) (re.++ (re.comp  (re.union  (str.to_re "\u{0A}")  (str.to.re "\u{26}"))) (re.++ (re.comp  (re.union  (str.to_re "\u{0A}")  (str.to.re "\u{26}"))) (re.++ (re.comp  (re.union  (str.to_re "\u{0A}")  (str.to.re "\u{26}"))) (re.++ (re.comp  (re.union  (str.to_re "\u{0A}")  (str.to.re "\u{26}"))) (re.comp  (re.union  (str.to_re "\u{0A}")  (str.to.re "\u{26}")))))))))))))))))))))))))))))))))))))))))))))))))))))))))))))))))))))))))))))))))))))))))))))))))))))))))))))))))))))))))))))))))))))))))))))))))))))))))))))))))))))))))))))))))))))))))))))))))))))))))))))))))))))))))))))))))))))))))))))))))))))))))))))))))))) )))
(check-sat)
(get-model)