TCS_Benchmarks/redos_fix/snort3_output_distinct_4737_4736_24_0.txt
([^\n]*)([^\n&]{256})
([^\n]*)([&?][uU][rR][lL]=)([^\n&]{256})